32	0

0	1	2
9	1	3
4	2	4	5
5	1	6
10	1	6
6	1	7
4	2	8	9
5	1	10
4	2	10	12
3	1	11
4	1	13
7	1	13
5	2	14	15
5	1	16
10	1	16
2	2	17	18
3	2	19	20
5	1	20
10	2	22	23
5	2	21	23
5	2	22	24
5	1	25
3	1	24
8	1	25
1	2	26	27
1	2	28	29
4	1	28
2	2	30	31
9	1	30
6	1	32
8	1	32
0	0
